 &GLOBAL
   PROJECT_NAME aiida
   RUN_TYPE  GEO_OPT
 &END GLOBAL
 &FORCE_EVAL
   METHOD  QS
   &DFT
     BASIS_SET_FILE_NAME BASIS_MOLOPT
     POTENTIAL_FILE_NAME GTH_POTENTIALS
     &QS
       EPS_DEFAULT     9.9999999999999998E-13
       EXTRAPOLATION  PS
       EXTRAPOLATION_ORDER  3
     &END QS
     &MGRID
       NGRIDS  4
       CUTOFF     2.8000000000000000E+02
       REL_CUTOFF     3.0000000000000000E+01
     &END MGRID
     &XC
       DENSITY_CUTOFF     1.0000000000000000E-10
       GRADIENT_CUTOFF     1.0000000000000000E-10
       TAU_CUTOFF     1.0000000000000000E-10
       &XC_FUNCTIONAL  NO_SHORTCUT
         &PBE  T
         &END PBE
       &END XC_FUNCTIONAL
     &END XC
     &POISSON
       POISSON_SOLVER  MT
       PERIODIC  NONE
     &END POISSON
   &END DFT
   &SUBSYS
     &CELL
       A     4.0000000000000000E+00    0.0000000000000000E+00    0.0000000000000000E+00
       B     0.0000000000000000E+00    4.0000000000000000E+00    0.0000000000000000E+00
       C     0.0000000000000000E+00    0.0000000000000000E+00    4.7371660000000011E+00
       PERIODIC  XYZ
       MULTIPLE_UNIT_CELL  1 1 1
     &END CELL
     &COORD
H1    2.0000000000000893E+00    1.9999999999999707E+00    2.7290247702949189E+00
H1    2.0000000000000697E+00    2.0000000000001568E+00    2.0081412297053984E+00
     &END COORD
     &KIND O
       BASIS_SET DZVP-MOLOPT-SR-GTH
       POTENTIAL GTH-PBE-q6
     &END KIND
     &KIND H1
       ELEMENT H
       BASIS_SET DZVP-MOLOPT-SR-GTH
       POTENTIAL GTH-PBE-q1
       &POTENTIAL
 1
  0.2000000000000000E+00 2 -0.4178900440000000E+01  0.7244633100000000E+00
 0
         # Potential name:  GTH-PBE-Q1  for symbol:  H
         # Potential read from the potential filename: GTH_POTENTIALS
       &END POTENTIAL
     &END KIND
     &TOPOLOGY
       COORD_FILE_NAME aiida.coords.xyz
       COORD_FILE_FORMAT  XYZ
       NUMBER_OF_ATOMS  2
       MULTIPLE_UNIT_CELL  1 1 1
     &END TOPOLOGY
   &END SUBSYS
 &END FORCE_EVAL
