 # Version information for this restart file 
 # current date 2018-12-19 11:31:17.981
 # current working dir /tmp/tmpuhfwy1pr/test_repo/sandbox/tmprg3h1tiy/20181219-00001
 # Program compiled at                              Mon Jan 15 17:12:42 UTC 2018
 # Program compiled on                                           lgw01-amd64-018
 # Program compiled for                                    Linux-x86_64-gfortran
 # Source code revision number                                         svn:18091
 &GLOBAL
   PROJECT_NAME aiida
   RUN_TYPE  GEO_OPT
 &END GLOBAL
 &FORCE_EVAL
   METHOD  QS
   &DFT
     BASIS_SET_FILE_NAME BASIS_MOLOPT
     &QS
       EPS_DEFAULT     9.9999999999999998E-13
       EXTRAPOLATION  PS
       EXTRAPOLATION_ORDER  3
     &END QS
     &MGRID
       NGRIDS  4
       CUTOFF     2.8000000000000000E+02
       REL_CUTOFF     3.0000000000000000E+01
     &END MGRID
     &XC
       DENSITY_CUTOFF     1.0000000000000000E-10
       GRADIENT_CUTOFF     1.0000000000000000E-10
       TAU_CUTOFF     1.0000000000000000E-10
       &XC_FUNCTIONAL  NO_SHORTCUT
         &PADE  T
         &END PADE
       &END XC_FUNCTIONAL
     &END XC
     &POISSON
       POISSON_SOLVER  MT
       PERIODIC  NONE
     &END POISSON
   &END DFT
   &SUBSYS
     &CELL
       A     4.0000000000000000E+00    0.0000000000000000E+00    0.0000000000000000E+00
       B     0.0000000000000000E+00    4.0000000000000000E+00    0.0000000000000000E+00
       C     0.0000000000000000E+00    0.0000000000000000E+00    4.7371660000000011E+00
       MULTIPLE_UNIT_CELL  1 1 1
     &END CELL
     &COORD
H    1.9999999999999751E+00    1.9999999999999747E+00    2.7366349399090169E+00
H    1.9999999999999669E+00    1.9999999999999669E+00    2.0005310600912933E+00
     &END COORD
     &KIND O
       BASIS_SET DZVP-MOLOPT-SR-GTH
       POTENTIAL GTH-LDA-q6
     &END KIND
     &KIND H
       BASIS_SET DZVP-MOLOPT-SR-GTH
       POTENTIAL GTH-LDA-q1
       &POTENTIAL
 1
  0.2000000000000000E+00 2 -0.4180236800000000E+01  0.7250748200000000E+00
 0
         # Potential name:  GTH-LDA-Q1  for symbol:  H
         # Potential read from the potential filename: POTENTIAL
       &END POTENTIAL
     &END KIND
     &TOPOLOGY
       COORD_FILE_NAME aiida.coords.xyz
       COORD_FILE_FORMAT  XYZ
       NUMBER_OF_ATOMS  2
       MULTIPLE_UNIT_CELL  1 1 1
     &END TOPOLOGY
   &END SUBSYS
 &END FORCE_EVAL
